c Random generated cnf formula, satisfiable: false
p cnf 10 50
6 -8 10 0
-8 10 -7 0
10 -4 -7 0
-10 -3 2 0
-6 3 4 0
-10 -5 -3 0
6 -10 -2 0
-9 3 -6 0
3 9 4 0
6 -4 5 0
-8 4 3 0
3 4 -5 0
9 8 -4 0
6 2 -10 0
8 2 1 0
4 1 2 0
7 -6 8 0
-7 -5 -10 0
-2 -9 -7 0
-10 4 -1 0
3 2 -1 0
8 10 7 0
4 10 -2 0
4 2 -10 0
-10 1 -9 0
10 -2 -3 0
5 -10 -2 0
-9 -7 -6 0
7 -9 10 0
4 -7 -10 0
-10 3 -7 0
-6 -4 -9 0
-4 2 -5 0
-6 8 -9 0
-8 -6 5 0
8 3 -2 0
9 -2 -1 0
-5 7 -1 0
-5 -10 1 0
3 2 -5 0
2 -9 -10 0
7 3 -1 0
-5 6 -4 0
-6 -2 -9 0
9 -10 -7 0
-7 8 6 0
2 -6 -8 0
9 -6 -7 0
8 6 -2 0
9 7 -2 0
